p tw 75 193
0 1
0 2
0 6
0 28
1 2
1 26
1 65
2 7
2 19
2 27
2 46
2 18
2 28
2 43
2 55
2 38
2 60
2 54
2 63
2 17
2 61
3 4
3 5
3 30
3 31
4 5
4 48
4 62
5 26
5 29
6 7
6 8
6 28
7 8
7 9
7 10
7 11
7 12
7 13
7 19
7 37
7 38
7 31
7 34
7 42
7 40
7 43
7 39
7 66
7 26
7 47
7 44
7 69
7 56
8 9
8 31
8 39
8 40
8 34
8 42
8 28
8 45
8 69
8 37
8 10
9 28
9 29
10 11
10 39
11 28
11 74
12 13
12 30
12 71
13 17
13 18
14 15
14 16
14 47
14 48
14 41
14 52
14 53
14 54
14 71
14 72
14 68
14 73
14 45
14 64
14 35
14 65
15 16
15 26
15 27
16 58
16 67
17 18
17 61
18 28
19 26
19 41
20 21
20 22
20 35
20 36
21 22
21 50
21 51
22 26
22 55
23 24
23 25
23 33
23 44
24 25
25 59
25 53
26 27
26 41
26 29
26 65
26 51
26 60
26 47
26 55
26 49
26 73
26 72
26 74
27 46
28 29
28 45
28 32
28 61
28 46
28 70
28 57
28 63
28 74
30 31
30 71
32 33
32 34
32 61
33 34
33 44
33 42
33 49
33 56
33 57
33 66
33 70
35 36
35 65
36 67
36 68
37 38
37 39
38 60
39 40
39 66
39 69
39 56
40 43
41 52
42 49
43 55
44 69
45 64
46 70
47 48
48 62
49 73
50 51
50 62
50 64
51 60
52 58
52 59
53 54
53 59
54 63
56 57
57 63
58 59
58 67
62 64
66 70
67 68
68 73
71 72
72 74
